




































































































0 49 15 20 18 54 
55 45 5 68 72 
37 24 26 10 31 23 
25 42 1 30 17 
71 36 27 33 69 32 
14 22 9 67 63 
73 8 34 57 41 
53 44 65 40 76 56 2 
48 51 70 75 3 16 60 
11 13 19 58 35 62 
28 4 46 74 43 29 
47 38 66 50 39 
64 59 61 7 
12 52 6 21 
